
(set-logic ALL) 

(declare-datatype MyList ((Nil) (Cons (head Real) (tail MyList)) )) 
(declare-fun l0 () MyList) 
(declare-fun l1 () MyList) 
(declare-fun l2 () MyList) 
(declare-fun l3 () MyList) 
(declare-fun i0 () Real) 
(declare-fun i1 () Real) 
(assert (is-Nil Nil) )
(assert (not (= l0 Nil)) )
(assert (and (= l3 Nil) (is-Nil l3)) )
(assert (and (= l3 Nil) (is-Cons Nil)) )
(assert (or (= l3 Nil) (= l2 l0) (is-Nil Nil) (= l0 l3)) )
(assert (not (= l2 Nil)) )
(assert (= l1 Nil) )
(assert (not (= l1 Nil)) )
(check-sat)
